
  32   50
  13   12    9   12    8   10   11    5   18   10   14    9    9   13   11   12    5   10    7    7    6    9    6   13   15    7   10   12   19   14    9    9    0    0    0    0    0    0    0    0    0    0    0    0    0    0    0    0    0    0

   0   0   0   0   0   0   0   0   0   0   0   0   0   0   0   0   0   0   0   0   0   0   0   0   0   0   0   0   0   0   0   0   0   0   0   0   0   0   0   0   0   0   0   0   0   0   0   0   0   0   0   7 2 3 4 7 10 11 19 
   2   0   0   0   0   0   0   0   0   0   0   0   0   0   0   0   0   5   0   0   0   0   0   0   0  10   0   5   0   0   1   0   0   0   0   0   0   0   0   0   0   0   0   0   0   0   0   0   0   0   0   8 31 30 18 15 13 9 8 5 
   7   0   0   9   0   0   0   0   0   7   0   0   0   0   3   0   0   0   0   0   0   0   0   0   4   0   0   0   0   6   0   7   0   0   0   0   0   0   0   0   0   0   0   0   0   0   0   0   0   0   0   4 31 14 13 6 
   1   6   0   0   0   8   0   0   0   8   0   0   0   0   0   0   3   0   0   5   6   6   0   0   0   0   0   0   0   0   0   0   0   0   0   0   0   0   0   0   0   0   0   0   0   0   0   0   0   0   0   9 30 29 28 26 23 18 17 16 14 
   1   0   0   0   0   0   0   0   0   0   0   0   5   0   0   3   0   0   0   0   0   0   0   0  10   8   0   0   0   0   0   0   0   0   0   0   0   0   0   0   0   0   0   0   0   0   0   0   0   0   0   7 28 27 26 17 16 14 12 
   4   0   0   0   0   0   0   0   0   0   0  10   0   1   2   1   0   0   8   0   0   0   0   0   0   0   0   0   0   0   0   0   0   0   0   0   0   0   0   0   0   0   0   0   0   0   0   0   0   0   0   6 27 26 25 17 16 12 
   3   8   0   0   0   0   0   0   0   3   0   0   0   0   0   0   0   0   0   0   0   0   0   0   2   0   0   3   0   5   0   0   0   0   0   0   0   0   0   0   0   0   0   0   0   0   0   0   0   0   0   5 26 25 17 14 13 
   8   2   0   0   0   0   0   0   0   0   0   0   0   0   0   0   0   0   0   0   6   0   0   0   0   0   0   0   0   0   0   0   0   0   0   0   0   0   0   0   0   0   0   0   0   0   0   0   0   0   0   4 28 21 17 16 
   4   0   0   0   0   0   0   0   0   0   0   0   0   0   0   0   0   0   0   0   0   0   0   0   0   0   0   0   0   0   0   0   9   0   0   0   0   0   0   0   0   0   0   0   0   0   0   0   0   0   0   6 29 25 24 23 21 20 
   2   0   0   0   0   0   9   0   0   6   0   0   0   0   0   0   0   0   0   0   0   0   0   0   0   0   0   0   0   8   1   0   3   0   0   0   0   0   0   0   0   0   0   0   0   0   0   0   0   0   0   5 29 28 25 21 20 
   6   0   0   0   6   0   0   0   0   0   0   0   0   0   0  10   0   0   0   0   0   0   9   0   0   9   0   0   0   6   0   0   0   0   0   0   0   0   0   0   0   0   0   0   0   0   0   0   0   0   0   5 30 27 22 21 20 
   6   0   0   0   2   1   0   0   0   0   0   6   9   0   0   0   0   0   0   0   3   1   0   0   0   0   0   0   0   0   0   0   0   0   0   0   0   0   0   0   0   0   0   0   0   0   0   0   0   0   0   4 23 22 21 20 
   2   0   0   0   0   0   0   0   0   0   0   3   0   0   0   0   0   0   0   0   0   0   1   2   0   0   3   0   0   0   0   0   0   0   0   0   0   0   0   0   0   0   0   0   0   0   0   0   0   0   0   2 23 16 
   1   3   8   4   0   0   0   6   0   1   0   0   0   0   0   0   0   0   0   0   0   0   0   0   4   0   0   0   0   0   0   0   0   0   0   0   0   0   0   0   0   0   0   0   0   0   0   0   0   0   0   3 24 21 20 
   4   0   0   0   0   0   0   1   0   0   0   0   0   7   0   0   0   0   0   0   0   0   0   0   0   0   7   5   0   3   0   3   0   0   0   0   0   0   0   0   0   0   0   0   0   0   0   0   0   0   0   3 26 25 23 
   2   0   0   0   0   0   0   0   0   4   0   0   0   0   0   0   0   0   0   0   0   3   0   0   0   0   0  10   0   0   0   0   0   0   0   0   0   0   0   0   0   0   0   0   0   0   0   0   0   0   0   2 22 20 
   6   0   0   0   5   1   1   0   0   0   0   0   0   0   0   5   0   0   0   0   0   0   0   0   0   8   0   0   0   0   0   0   0   0   0   0   0   0   0   0   0   0   0   0   0   0   0   0   0   0   0   2 24 20 
   2   0   0   0   0   0   0   0   0   9   0   0   0   0   0   0   0   0   0   0   3   0   0   0   0   0   0   0   0   0   0   0   0   0   0   0   0   0   0   0   0   0   0   0   0   0   0   0   0   0   0   2 27 20 
   2   0   0   0   0   0   0   0   0   0   0   0   0   4   0   0   0   0   0   4   0   0   0   0   1   0   0   0   0   0   0   0   0   0   0   0   0   0   0   0   0   0   0   0   0   0   0   0   0   0   0   2 21 20 
   8   0   0   0   0   0   0   6   0   0   0   0   0   0   0   0   0   0   0   0   0   0   0   0   0   0   0   0   0   5   0   0   0   0   0   0   0   0   0   0   0   0   0   0   0   0   0   0   0   0   0   1 32
  10   0   9   0   0   0   0   0   0   0   6   0   0   9  10   4   7   0   0   0   0   0   0   0   0   0   0   6   0   0   0   0   0   0   0   0   0   0   0   0   0   0   0   0   0   0   0   0   0   0   0   1 32
   7   2   0   0   0   0   0   0   5   0   0   0   0   0   0   0   8   0   0   0   0   0   0   6   0   0   0   0   0   0   0   0   0   0   0   0   0   0   0   0   0   0   0   0   0   0   0   0   0   0   0   1 32
   8   0   6   0   0   0   7   0   0   0   0   0   0   0   6   0   0   0   0   0   0   0   0   0   0   0   0   0   9   0   0   0   0   0   0   0   0   0   0   0   0   0   0   0   0   0   0   0   0   0   0   1 32
   9   0   0   0   0   5   0   0   0   0   0   0   0   0   0   0   0   0   0   0   0   0   0   0   0   0   0   0   0   3   0   0   0   0   0   0   0   0   0   0   0   0   0   0   0   0   0   0   0   0   0   1 32
   4   0   0   0   0   0   0   0   0   0   2   0   0   0   0   0   0   0   0   0   0   0   0   0   0   0   0   0   0   0   0   0   0   0   0   0   0   0   0   0   0   0   0   0   0   0   0   0   0   0   0   1 32
   9   0   0   0   8   0   0   0   0   0   7   0   0   1   0   0   0   0   7   5   0   0   0   0   0   0   0   0   6   0   0   0   0   0   0   0   0   0   0   0   0   0   0   0   0   0   0   0   0   0   0   1 32
   8   0   0   0   0   0   0   8   0   0   0   5   0   0   0   0   0   0   0   0   6   0   0   0   0   0   0   0   0   8   0   0   0   0   0   0   0   0   0   0   0   0   0   0   0   0   0   0   0   0   0   1 32
   6   9   0   0   0   0   0   0   0   0   0   0   0   0   0   8   0   0   1   0   0   0   0   0   0   0   0   0   0   9   0   8   0   0   0   0   0   0   0   0   0   0   0   0   0   0   0   0   0   0   0   1 32
   3  10   0   0   0   0   0   0   0   0   0   0   0   0   0   4   0   0   0   0   0   0   0   3   8   0   0   0   0   4   7   0   0   0   0   0   0   0   0   0   0   0   0   0   0   0   0   0   0   0   0   1 32
   5   0   0   0   0   0   3   0   0   0   0   4   0   0   4   3   0   4   3   0   0   0   2   0   0   0   0   0   0   0  10   0   0   0   0   0   0   0   0   0   0   0   0   0   0   0   0   0   0   0   0   1 32
   6   0   3   0   0   0   8   0   0   0   0   0   0   0   0   0   0   0   0   0   0   0   0   0   0   0   0   0   0   0   0   0   0   0   0   0   0   0   0   0   0   0   0   0   0   0   0   0   0   0   0   1 32
   0   0   0   0   0   0   0   0   0   0   0   0   0   0   0   0   0   0   0   0   0   0   0   0   0   0   0   0   0   0   0   0   0   0   0   0   0   0   0   0   0   0   0   0   0   0   0   0   0   0   0   0 
